3162805
91,75,89,108,169,17,95,193,168,131,73,138,196,183,104,110,10,177,8,191,160,65,221,34,94,127,154,117,11,148,113,4,142,21,109,228,12,187,129,88,171,186,170,153,217,40,101,192,205,62,162,33,103,173,16,41,105,222,81,151,9,87,37,211,46,42,13,93,136,178,208,137,36,35,133,112,155,161,210,3,52,194,139,212,85,43,64,145,38,146,150,90,158,24,54,6,230,172,140,39,227,84,209,132,224,203,45,215,50,107,166,206,106,216,100,190,143,5,176,48,120,199,28,102,130,22,198,59,220,78,67,55,26,144,114,119,181,115,195,180,121,18,92,141,128,219,66,175,56,202,53,99,77,182,25,204,51,70,200,63,134,27,116,184,185,179,98,1,147,14,164,69,156,32,118,72,74,83,49,165,71,126,29,2,82,47,68,213,15,31,159,149,207,157,218,61,23,174,58,135,163,30,57,225,188,197,124,152,86,80,111,201,167,123,19,76,223,79,214,125,44,7,229,20,96,60,97,189,122,226